
Gurobi 8.1.1 (win64, Python) logging started 01/07/21 07:38:55


--------------------------------------------
Warning: your license will expire in 13 days
--------------------------------------------

Academic license - for non-commercial use only
Changed value of parameter Timelimit to 3600.0
   Prev: 1e+100  Min: 0.0  Max: 1e+100  Default: 1e+100
Optimize a model with 400 rows, 2400 columns and 8416 nonzeros
Model has 1840 general constraints
Variable types: 96 continuous, 2304 integer (2304 binary)
Coefficient statistics:
  Matrix range     [1e+00, 3e+01]
  Objective range  [1e+00, 1e+00]
  Bounds range     [1e+00, 1e+00]
  RHS range        [1e+00, 1e+03]
Presolve added 344 rows and 0 columns
Presolve removed 0 rows and 1260 columns
Presolve time: 0.03s
Presolved: 744 rows, 1140 columns, 8286 nonzeros
Variable types: 80 continuous, 1060 integer (1060 binary)

Root relaxation: objective 1.797200e+04, 367 iterations, 0.01 seconds

    Nodes    |    Current Node    |     Objective Bounds      |     Work
 Expl Unexpl |  Obj  Depth IntInf | Incumbent    BestBd   Gap | It/Node Time

     0     0 17972.0000    0   28          - 17972.0000      -     -    0s
     0     0 17972.0000    0   74          - 17972.0000      -     -    0s
     0     0 17972.0000    0   74          - 17972.0000      -     -    0s
     0     0 17972.0000    0   17          - 17972.0000      -     -    0s
     0     0 17972.0000    0   29          - 17972.0000      -     -    0s
     0     0 17972.0000    0   21          - 17972.0000      -     -    0s
     0     0 17972.0000    0   21          - 17972.0000      -     -    0s
H    0     0                    18500.220741 17972.0000  2.86%     -    0s
H    0     2                    18471.690389 17972.0000  2.71%     -    0s
     0     2 17972.0000    0   21 18471.6904 17972.0000  2.71%     -    0s
H   33    34                    18373.406516 17972.0000  2.18%   112    0s
H   71    62                    18209.342540 17972.0000  1.30%  83.4    0s
H   73    64                    18178.995592 17972.0000  1.14%  92.2    0s
H  120   110                    18169.094145 17972.0000  1.08%  99.1    0s
H  171   121                    18117.480243 17972.0000  0.80%  90.6    0s
H  222   126                    18099.670408 17972.0000  0.71%  83.1    0s
H  288    50                    18036.578406 17972.4558  0.36%  73.7    0s
*  342    45              45    18035.498527 17972.4558  0.35%  71.3    0s

Cutting planes:
  Gomory: 2
  Implied bound: 60
  Clique: 1
  MIR: 50
  Inf proof: 1
  Zero half: 1

Explored 681 nodes (38905 simplex iterations) in 0.76 seconds
Thread count was 8 (of 8 available processors)

Solution count 10: 18035.5 18036.6 18099.7 ... 18500.2

Optimal solution found (tolerance 1.00e-04)
Best objective 1.803549852660e+04, best bound 1.803549852660e+04, gap 0.0000%
Changed value of parameter Timelimit to 3600.0
   Prev: 1e+100  Min: 0.0  Max: 1e+100  Default: 1e+100
Optimize a model with 400 rows, 2400 columns and 8416 nonzeros
Model has 1840 general constraints
Variable types: 96 continuous, 2304 integer (2304 binary)
Coefficient statistics:
  Matrix range     [1e+00, 3e+01]
  Objective range  [1e+00, 1e+00]
  Bounds range     [1e+00, 1e+00]
  RHS range        [1e+00, 1e+03]
Presolve added 344 rows and 0 columns
Presolve removed 0 rows and 1260 columns
Presolve time: 0.04s
Presolved: 744 rows, 1140 columns, 8286 nonzeros
Variable types: 80 continuous, 1060 integer (1060 binary)

Root relaxation: objective 1.797200e+04, 367 iterations, 0.01 seconds

    Nodes    |    Current Node    |     Objective Bounds      |     Work
 Expl Unexpl |  Obj  Depth IntInf | Incumbent    BestBd   Gap | It/Node Time

     0     0 17972.0000    0   28          - 17972.0000      -     -    0s
     0     0 17972.0000    0   74          - 17972.0000      -     -    0s
     0     0 17972.0000    0   74          - 17972.0000      -     -    0s
     0     0 17972.0000    0   17          - 17972.0000      -     -    0s
     0     0 17972.0000    0   29          - 17972.0000      -     -    0s
     0     0 17972.0000    0   21          - 17972.0000      -     -    0s
     0     0 17972.0000    0   21          - 17972.0000      -     -    0s
H    0     0                    18500.220741 17972.0000  2.86%     -    0s
H    0     2                    18471.690389 17972.0000  2.71%     -    0s
     0     2 17972.0000    0   21 18471.6904 17972.0000  2.71%     -    0s
H   33    34                    18373.406516 17972.0000  2.18%   112    0s
H   71    62                    18209.342540 17972.0000  1.30%  83.4    0s
H   73    64                    18178.995592 17972.0000  1.14%  92.2    0s
H  120   110                    18169.094145 17972.0000  1.08%  99.1    0s
H  171   121                    18117.480243 17972.0000  0.80%  90.6    0s
H  222   126                    18099.670408 17972.0000  0.71%  83.1    0s
H  288    50                    18036.578406 17972.4558  0.36%  73.7    0s
*  342    45              45    18035.498527 17972.4558  0.35%  71.3    0s

Cutting planes:
  Gomory: 2
  Implied bound: 60
  Clique: 1
  MIR: 50
  Inf proof: 1
  Zero half: 1

Explored 681 nodes (38905 simplex iterations) in 0.93 seconds
Thread count was 8 (of 8 available processors)

Solution count 10: 18035.5 18036.6 18099.7 ... 18500.2

Optimal solution found (tolerance 1.00e-04)
Best objective 1.803549852660e+04, best bound 1.803549852660e+04, gap 0.0000%
Changed value of parameter Timelimit to 3600.0
   Prev: 1e+100  Min: 0.0  Max: 1e+100  Default: 1e+100
Optimize a model with 400 rows, 2400 columns and 8416 nonzeros
Model has 1840 general constraints
Variable types: 96 continuous, 2304 integer (2304 binary)
Coefficient statistics:
  Matrix range     [1e+00, 3e+01]
  Objective range  [1e+00, 1e+00]
  Bounds range     [1e+00, 1e+00]
  RHS range        [1e+00, 1e+03]
Presolve added 344 rows and 0 columns
Presolve removed 0 rows and 1260 columns
Presolve time: 0.03s
Presolved: 744 rows, 1140 columns, 8286 nonzeros
Variable types: 80 continuous, 1060 integer (1060 binary)

Root relaxation: objective 1.797200e+04, 367 iterations, 0.01 seconds

    Nodes    |    Current Node    |     Objective Bounds      |     Work
 Expl Unexpl |  Obj  Depth IntInf | Incumbent    BestBd   Gap | It/Node Time

     0     0 17972.0000    0   28          - 17972.0000      -     -    0s
     0     0 17972.0000    0   74          - 17972.0000      -     -    0s
     0     0 17972.0000    0   74          - 17972.0000      -     -    0s
     0     0 17972.0000    0   17          - 17972.0000      -     -    0s
     0     0 17972.0000    0   29          - 17972.0000      -     -    0s
     0     0 17972.0000    0   21          - 17972.0000      -     -    0s
     0     0 17972.0000    0   21          - 17972.0000      -     -    0s
H    0     0                    18500.220741 17972.0000  2.86%     -    0s
H    0     2                    18471.690389 17972.0000  2.71%     -    0s
     0     2 17972.0000    0   21 18471.6904 17972.0000  2.71%     -    0s
H   33    34                    18373.406516 17972.0000  2.18%   112    0s
H   71    62                    18209.342540 17972.0000  1.30%  83.4    0s
H   73    64                    18178.995592 17972.0000  1.14%  92.2    0s
H  120   110                    18169.094145 17972.0000  1.08%  99.1    0s
H  171   121                    18117.480243 17972.0000  0.80%  90.6    0s
H  222   126                    18099.670408 17972.0000  0.71%  83.1    0s
H  288    50                    18036.578406 17972.4558  0.36%  73.7    0s
*  342    45              45    18035.498527 17972.4558  0.35%  71.3    0s

Cutting planes:
  Gomory: 2
  Implied bound: 60
  Clique: 1
  MIR: 50
  Inf proof: 1
  Zero half: 1

Explored 681 nodes (38905 simplex iterations) in 0.78 seconds
Thread count was 8 (of 8 available processors)

Solution count 10: 18035.5 18036.6 18099.7 ... 18500.2

Optimal solution found (tolerance 1.00e-04)
Best objective 1.803549852660e+04, best bound 1.803549852660e+04, gap 0.0000%
Changed value of parameter Timelimit to 3600.0
   Prev: 1e+100  Min: 0.0  Max: 1e+100  Default: 1e+100
Optimize a model with 400 rows, 2400 columns and 8416 nonzeros
Model has 1840 general constraints
Variable types: 96 continuous, 2304 integer (2304 binary)
Coefficient statistics:
  Matrix range     [1e+00, 3e+01]
  Objective range  [1e+00, 1e+00]
  Bounds range     [1e+00, 1e+00]
  RHS range        [1e+00, 1e+03]
Presolve added 344 rows and 0 columns
Presolve removed 0 rows and 1260 columns
Presolve time: 0.03s
Presolved: 744 rows, 1140 columns, 8286 nonzeros
Variable types: 80 continuous, 1060 integer (1060 binary)

Root relaxation: objective 1.797200e+04, 367 iterations, 0.01 seconds

    Nodes    |    Current Node    |     Objective Bounds      |     Work
 Expl Unexpl |  Obj  Depth IntInf | Incumbent    BestBd   Gap | It/Node Time

     0     0 17972.0000    0   28          - 17972.0000      -     -    0s
     0     0 17972.0000    0   74          - 17972.0000      -     -    0s
     0     0 17972.0000    0   74          - 17972.0000      -     -    0s
     0     0 17972.0000    0   17          - 17972.0000      -     -    0s
     0     0 17972.0000    0   29          - 17972.0000      -     -    0s
     0     0 17972.0000    0   21          - 17972.0000      -     -    0s
     0     0 17972.0000    0   21          - 17972.0000      -     -    0s
H    0     0                    18500.220741 17972.0000  2.86%     -    0s
H    0     2                    18471.690389 17972.0000  2.71%     -    0s
     0     2 17972.0000    0   21 18471.6904 17972.0000  2.71%     -    0s
H   33    34                    18373.406516 17972.0000  2.18%   112    0s
H   71    62                    18209.342540 17972.0000  1.30%  83.4    0s
H   73    64                    18178.995592 17972.0000  1.14%  92.2    0s
H  120   110                    18169.094145 17972.0000  1.08%  99.1    0s
H  171   121                    18117.480243 17972.0000  0.80%  90.6    0s
H  222   126                    18099.670408 17972.0000  0.71%  83.1    0s
H  288    50                    18036.578406 17972.4558  0.36%  73.7    0s
*  342    45              45    18035.498527 17972.4558  0.35%  71.3    0s

Cutting planes:
  Gomory: 2
  Implied bound: 60
  Clique: 1
  MIR: 50
  Inf proof: 1
  Zero half: 1

Explored 681 nodes (38905 simplex iterations) in 0.94 seconds
Thread count was 8 (of 8 available processors)

Solution count 10: 18035.5 18036.6 18099.7 ... 18500.2

Optimal solution found (tolerance 1.00e-04)
Best objective 1.803549852660e+04, best bound 1.803549852660e+04, gap 0.0000%
Changed value of parameter Timelimit to 3600.0
   Prev: 1e+100  Min: 0.0  Max: 1e+100  Default: 1e+100
Optimize a model with 400 rows, 2400 columns and 8416 nonzeros
Model has 1840 general constraints
Variable types: 96 continuous, 2304 integer (2304 binary)
Coefficient statistics:
  Matrix range     [1e+00, 3e+01]
  Objective range  [1e+00, 1e+00]
  Bounds range     [1e+00, 1e+00]
  RHS range        [1e+00, 1e+03]
Presolve added 344 rows and 0 columns
Presolve removed 0 rows and 1260 columns
Presolve time: 0.03s
Presolved: 744 rows, 1140 columns, 8286 nonzeros
Variable types: 80 continuous, 1060 integer (1060 binary)

Root relaxation: objective 1.797200e+04, 367 iterations, 0.01 seconds

    Nodes    |    Current Node    |     Objective Bounds      |     Work
 Expl Unexpl |  Obj  Depth IntInf | Incumbent    BestBd   Gap | It/Node Time

     0     0 17972.0000    0   28          - 17972.0000      -     -    0s
     0     0 17972.0000    0   74          - 17972.0000      -     -    0s
     0     0 17972.0000    0   74          - 17972.0000      -     -    0s
     0     0 17972.0000    0   17          - 17972.0000      -     -    0s
     0     0 17972.0000    0   29          - 17972.0000      -     -    0s
     0     0 17972.0000    0   21          - 17972.0000      -     -    0s
     0     0 17972.0000    0   21          - 17972.0000      -     -    0s
H    0     0                    18500.220741 17972.0000  2.86%     -    0s
H    0     2                    18471.690389 17972.0000  2.71%     -    0s
     0     2 17972.0000    0   21 18471.6904 17972.0000  2.71%     -    0s
H   33    34                    18373.406516 17972.0000  2.18%   112    0s
H   71    62                    18209.342540 17972.0000  1.30%  83.4    0s
H   73    64                    18178.995592 17972.0000  1.14%  92.2    0s
H  120   110                    18169.094145 17972.0000  1.08%  99.1    0s
H  171   121                    18117.480243 17972.0000  0.80%  90.6    0s
H  222   126                    18099.670408 17972.0000  0.71%  83.1    0s
H  288    50                    18036.578406 17972.4558  0.36%  73.7    0s
*  342    45              45    18035.498527 17972.4558  0.35%  71.3    0s

Cutting planes:
  Gomory: 2
  Implied bound: 60
  Clique: 1
  MIR: 50
  Inf proof: 1
  Zero half: 1

Explored 681 nodes (38905 simplex iterations) in 0.87 seconds
Thread count was 8 (of 8 available processors)

Solution count 10: 18035.5 18036.6 18099.7 ... 18500.2

Optimal solution found (tolerance 1.00e-04)
Best objective 1.803549852660e+04, best bound 1.803549852660e+04, gap 0.0000%
Changed value of parameter Timelimit to 3600.0
   Prev: 1e+100  Min: 0.0  Max: 1e+100  Default: 1e+100
Optimize a model with 400 rows, 2400 columns and 8416 nonzeros
Model has 1840 general constraints
Variable types: 96 continuous, 2304 integer (2304 binary)
Coefficient statistics:
  Matrix range     [1e+00, 3e+01]
  Objective range  [1e+00, 1e+00]
  Bounds range     [1e+00, 1e+00]
  RHS range        [1e+00, 1e+03]
Presolve added 344 rows and 0 columns
Presolve removed 0 rows and 1260 columns
Presolve time: 0.03s
Presolved: 744 rows, 1140 columns, 8286 nonzeros
Variable types: 80 continuous, 1060 integer (1060 binary)

Root relaxation: objective 1.797200e+04, 367 iterations, 0.01 seconds

    Nodes    |    Current Node    |     Objective Bounds      |     Work
 Expl Unexpl |  Obj  Depth IntInf | Incumbent    BestBd   Gap | It/Node Time

     0     0 17972.0000    0   28          - 17972.0000      -     -    0s
     0     0 17972.0000    0   74          - 17972.0000      -     -    0s
     0     0 17972.0000    0   74          - 17972.0000      -     -    0s
     0     0 17972.0000    0   17          - 17972.0000      -     -    0s
     0     0 17972.0000    0   29          - 17972.0000      -     -    0s
     0     0 17972.0000    0   21          - 17972.0000      -     -    0s
     0     0 17972.0000    0   21          - 17972.0000      -     -    0s
H    0     0                    18500.220741 17972.0000  2.86%     -    0s
H    0     2                    18471.690389 17972.0000  2.71%     -    0s
     0     2 17972.0000    0   21 18471.6904 17972.0000  2.71%     -    0s
H   33    34                    18373.406516 17972.0000  2.18%   112    0s
H   71    62                    18209.342540 17972.0000  1.30%  83.4    0s
H   73    64                    18178.995592 17972.0000  1.14%  92.2    0s
H  120   110                    18169.094145 17972.0000  1.08%  99.1    0s
H  171   121                    18117.480243 17972.0000  0.80%  90.6    0s
H  222   126                    18099.670408 17972.0000  0.71%  83.1    0s
H  288    50                    18036.578406 17972.4558  0.36%  73.7    0s
*  342    45              45    18035.498527 17972.4558  0.35%  71.3    0s

Cutting planes:
  Gomory: 2
  Implied bound: 60
  Clique: 1
  MIR: 50
  Inf proof: 1
  Zero half: 1

Explored 681 nodes (38905 simplex iterations) in 0.93 seconds
Thread count was 8 (of 8 available processors)

Solution count 10: 18035.5 18036.6 18099.7 ... 18500.2

Optimal solution found (tolerance 1.00e-04)
Best objective 1.803549852660e+04, best bound 1.803549852660e+04, gap 0.0000%
Changed value of parameter Timelimit to 3600.0
   Prev: 1e+100  Min: 0.0  Max: 1e+100  Default: 1e+100
Optimize a model with 400 rows, 2400 columns and 8416 nonzeros
Model has 1840 general constraints
Variable types: 96 continuous, 2304 integer (2304 binary)
Coefficient statistics:
  Matrix range     [1e+00, 3e+01]
  Objective range  [1e+00, 1e+00]
  Bounds range     [1e+00, 1e+00]
  RHS range        [1e+00, 1e+03]
Presolve added 344 rows and 0 columns
Presolve removed 0 rows and 1260 columns
Presolve time: 0.04s
Presolved: 744 rows, 1140 columns, 8286 nonzeros
Variable types: 80 continuous, 1060 integer (1060 binary)

Root relaxation: objective 1.797200e+04, 367 iterations, 0.01 seconds

    Nodes    |    Current Node    |     Objective Bounds      |     Work
 Expl Unexpl |  Obj  Depth IntInf | Incumbent    BestBd   Gap | It/Node Time

     0     0 17972.0000    0   28          - 17972.0000      -     -    0s
     0     0 17972.0000    0   74          - 17972.0000      -     -    0s
     0     0 17972.0000    0   74          - 17972.0000      -     -    0s
     0     0 17972.0000    0   17          - 17972.0000      -     -    0s
     0     0 17972.0000    0   29          - 17972.0000      -     -    0s
     0     0 17972.0000    0   21          - 17972.0000      -     -    0s
     0     0 17972.0000    0   21          - 17972.0000      -     -    0s
H    0     0                    18500.220741 17972.0000  2.86%     -    0s
H    0     2                    18471.690389 17972.0000  2.71%     -    0s
     0     2 17972.0000    0   21 18471.6904 17972.0000  2.71%     -    0s
H   33    34                    18373.406516 17972.0000  2.18%   112    0s
H   71    62                    18209.342540 17972.0000  1.30%  83.4    0s
H   73    64                    18178.995592 17972.0000  1.14%  92.2    0s
H  120   110                    18169.094145 17972.0000  1.08%  99.1    0s
H  171   121                    18117.480243 17972.0000  0.80%  90.6    0s
H  222   126                    18099.670408 17972.0000  0.71%  83.1    0s
H  288    50                    18036.578406 17972.4558  0.36%  73.7    0s
*  342    45              45    18035.498527 17972.4558  0.35%  71.3    0s

Cutting planes:
  Gomory: 2
  Implied bound: 60
  Clique: 1
  MIR: 50
  Inf proof: 1
  Zero half: 1

Explored 681 nodes (38905 simplex iterations) in 0.79 seconds
Thread count was 8 (of 8 available processors)

Solution count 10: 18035.5 18036.6 18099.7 ... 18500.2

Optimal solution found (tolerance 1.00e-04)
Best objective 1.803549852660e+04, best bound 1.803549852660e+04, gap 0.0000%
Changed value of parameter Timelimit to 3600.0
   Prev: 1e+100  Min: 0.0  Max: 1e+100  Default: 1e+100
Optimize a model with 400 rows, 2400 columns and 8416 nonzeros
Model has 1840 general constraints
Variable types: 96 continuous, 2304 integer (2304 binary)
Coefficient statistics:
  Matrix range     [1e+00, 3e+01]
  Objective range  [1e+00, 1e+00]
  Bounds range     [1e+00, 1e+00]
  RHS range        [1e+00, 1e+03]
Presolve added 344 rows and 0 columns
Presolve removed 0 rows and 1260 columns
Presolve time: 0.03s
Presolved: 744 rows, 1140 columns, 8286 nonzeros
Variable types: 80 continuous, 1060 integer (1060 binary)

Root relaxation: objective 1.797200e+04, 367 iterations, 0.01 seconds

    Nodes    |    Current Node    |     Objective Bounds      |     Work
 Expl Unexpl |  Obj  Depth IntInf | Incumbent    BestBd   Gap | It/Node Time

     0     0 17972.0000    0   28          - 17972.0000      -     -    0s
     0     0 17972.0000    0   74          - 17972.0000      -     -    0s
     0     0 17972.0000    0   74          - 17972.0000      -     -    0s
     0     0 17972.0000    0   17          - 17972.0000      -     -    0s
     0     0 17972.0000    0   29          - 17972.0000      -     -    0s
     0     0 17972.0000    0   21          - 17972.0000      -     -    0s
     0     0 17972.0000    0   21          - 17972.0000      -     -    0s
H    0     0                    18500.220741 17972.0000  2.86%     -    0s
H    0     2                    18471.690389 17972.0000  2.71%     -    0s
     0     2 17972.0000    0   21 18471.6904 17972.0000  2.71%     -    0s
H   33    34                    18373.406516 17972.0000  2.18%   112    0s
H   71    62                    18209.342540 17972.0000  1.30%  83.4    0s
H   73    64                    18178.995592 17972.0000  1.14%  92.2    0s
H  120   110                    18169.094145 17972.0000  1.08%  99.1    0s
H  171   121                    18117.480243 17972.0000  0.80%  90.6    0s
H  222   126                    18099.670408 17972.0000  0.71%  83.1    0s
H  288    50                    18036.578406 17972.4558  0.36%  73.7    0s
*  342    45              45    18035.498527 17972.4558  0.35%  71.3    0s

Cutting planes:
  Gomory: 2
  Implied bound: 60
  Clique: 1
  MIR: 50
  Inf proof: 1
  Zero half: 1

Explored 681 nodes (38905 simplex iterations) in 0.78 seconds
Thread count was 8 (of 8 available processors)

Solution count 10: 18035.5 18036.6 18099.7 ... 18500.2

Optimal solution found (tolerance 1.00e-04)
Best objective 1.803549852660e+04, best bound 1.803549852660e+04, gap 0.0000%
Changed value of parameter Timelimit to 3600.0
   Prev: 1e+100  Min: 0.0  Max: 1e+100  Default: 1e+100
Optimize a model with 400 rows, 2400 columns and 8416 nonzeros
Model has 1840 general constraints
Variable types: 96 continuous, 2304 integer (2304 binary)
Coefficient statistics:
  Matrix range     [1e+00, 3e+01]
  Objective range  [1e+00, 1e+00]
  Bounds range     [1e+00, 1e+00]
  RHS range        [1e+00, 1e+03]
Presolve added 344 rows and 0 columns
Presolve removed 0 rows and 1260 columns
Presolve time: 0.03s
Presolved: 744 rows, 1140 columns, 8286 nonzeros
Variable types: 80 continuous, 1060 integer (1060 binary)

Root relaxation: objective 1.797200e+04, 367 iterations, 0.01 seconds

    Nodes    |    Current Node    |     Objective Bounds      |     Work
 Expl Unexpl |  Obj  Depth IntInf | Incumbent    BestBd   Gap | It/Node Time

     0     0 17972.0000    0   28          - 17972.0000      -     -    0s
     0     0 17972.0000    0   74          - 17972.0000      -     -    0s
     0     0 17972.0000    0   74          - 17972.0000      -     -    0s
     0     0 17972.0000    0   17          - 17972.0000      -     -    0s
     0     0 17972.0000    0   29          - 17972.0000      -     -    0s
     0     0 17972.0000    0   21          - 17972.0000      -     -    0s
     0     0 17972.0000    0   21          - 17972.0000      -     -    0s
H    0     0                    18500.220741 17972.0000  2.86%     -    0s
H    0     2                    18471.690389 17972.0000  2.71%     -    0s
     0     2 17972.0000    0   21 18471.6904 17972.0000  2.71%     -    0s
H   33    34                    18373.406516 17972.0000  2.18%   112    0s
H   71    62                    18209.342540 17972.0000  1.30%  83.4    0s
H   73    64                    18178.995592 17972.0000  1.14%  92.2    0s
H  120   110                    18169.094145 17972.0000  1.08%  99.1    0s
H  171   121                    18117.480243 17972.0000  0.80%  90.6    0s
H  222   126                    18099.670408 17972.0000  0.71%  83.1    0s
H  288    50                    18036.578406 17972.4558  0.36%  73.7    0s
*  342    45              45    18035.498527 17972.4558  0.35%  71.3    0s

Cutting planes:
  Gomory: 2
  Implied bound: 60
  Clique: 1
  MIR: 50
  Inf proof: 1
  Zero half: 1

Explored 681 nodes (38905 simplex iterations) in 0.74 seconds
Thread count was 8 (of 8 available processors)

Solution count 10: 18035.5 18036.6 18099.7 ... 18500.2

Optimal solution found (tolerance 1.00e-04)
Best objective 1.803549852660e+04, best bound 1.803549852660e+04, gap 0.0000%
